1 -1 2 0
1 -1 -3 0
1 -1 -4 0
1 1 -5 0
1 -2 -3 0
1 2 6 0
1 -2 1 0
1 2 -4 0
1 7 8 0
1 -7 9 0
1 -7 -10 0
1 7 -6 0
1 -7 11 0
1 7 5 0
1 -10 8 0
1 10 -9 0
1 -10 -11 0
1 -10 -12 0
1 -10 -7 0
1 10 -4 0
1 -10 -5 0
1 -6 13 0
1 6 14 0
1 6 -2 0
1 6 15 0
1 -6 -7 0
1 -6 1 0
1 6 5 0
1 -5 16 0
1 -5 -17 0
1 -5 -10 0
1 -5 6 0
1 -5 -15 0
1 5 18 0
1 5 19 0
1 -5 7 0
1 -5 -1 0
1 3 -20 0
1 3 -21 0
1 -3 10 0
1 -3 2 0
1 -3 22 0
1 3 23 0
1 -3 24 0
1 3 -7 0
1 -3 -1 0
1 3 -4 0
1 4 17 0
1 4 21 0
1 4 10 0
1 -4 2 0
1 -4 3 0
1 4 -15 0
1 4 -23 0
1 -4 -7 0
1 -19 9 0
1 19 14 0
1 19 6 0
1 19 11 0
1 -19 -12 0
1 19 5 0
1 -14 9 0
1 14 21 0
1 -14 6 0
1 -14 11 0
1 -14 12 0
1 -14 19 0
1 -18 8 0
1 18 9 0
1 -18 -13 0
1 18 25 0
1 -18 -26 0
1 18 6 0
1 -18 -11 0
1 18 27 0
1 -18 -23 0
1 18 -28 0
1 13 -9 0
1 13 -25 0
1 -13 20 0
1 13 -26 0
1 13 -6 0
1 -13 11 0
1 13 -27 0
1 13 -28 0
1 -13 5 0
1 -12 29 0
1 -12 13 0
1 -12 -14 0
1 12 -10 0
1 -12 30 0
1 -12 -31 0
1 -12 32 0
1 -12 18 0
1 -12 19 0
1 12 7 0
1 -12 -33 0
1 -9 34 0
1 -9 -29 0
1 9 -13 0
1 9 -10 0
1 9 -30 0
1 9 -31 0
1 9 18 0
1 -9 19 0
1 -9 7 0
1 -11 8 0
1 -11 30 0
1 11 35 0
1 11 -18 0
1 11 19 0
1 -11 7 0
1 11 33 0
1 -8 36 0
1 8 13 0
1 -8 -14 0
1 -8 10 0
1 -8 30 0
1 8 35 0
1 -8 15 0
1 8 -18 0
1 8 -19 0
1 -8 -7 0
1 32 9 0
1 32 -25 0
1 -32 26 0
1 -32 -12 0
1 32 27 0
1 32 -28 0
1 -29 -9 0
1 -29 -17 0
1 -29 -25 0
1 29 26 0
1 29 -32 0
1 -31 -34 0
1 -31 -9 0
1 -31 -25 0
1 -31 26 0
1 -31 -12 0
1 31 -27 0
1 31 -28 0
1 -34 -25 0
1 -34 -31 0
1 -34 -12 0
1 34 27 0
1 34 28 0
1 -28 -29 0
1 28 13 0
1 -28 -31 0
1 28 -32 0
1 26 -29 0
1 -26 13 0
1 26 -32 0
1 -27 -25 0
1 27 37 0
1 -27 31 0
1 -27 -18 0
1 -27 -33 0
1 -25 34 0
1 25 29 0
1 25 37 0
1 25 -30 0
1 -25 -31 0
1 25 32 0
1 -25 18 0
1 25 -27 0
1 -25 -33 0
1 24 -38 0
1 24 -39 0
1 24 -40 0
1 -24 -19 0
1 -21 -38 0
1 21 -14 0
1 21 -41 0
1 21 -3 0
1 -21 -39 0
1 21 24 0
1 21 4 0
1 -23 -38 0
1 -23 41 0
1 -23 -42 0
1 23 -3 0
1 -23 -39 0
1 -23 40 0
1 -23 -43 0
1 23 44 0
1 -23 -4 0
1 -20 40 0
1 -20 -38 0
1 -20 45 0
1 -20 42 0
1 -20 23 0
1 -20 43 0
1 -20 44 0
1 41 -40 0
1 41 -17 0
1 -41 20 0
1 41 -21 0
1 -41 23 0
1 -41 -24 0
1 -40 36 0
1 40 17 0
1 40 41 0
1 -40 35 0
1 -40 -15 0
1 -40 -23 0
1 -40 -24 0
1 38 21 0
1 -38 39 0
1 -38 -23 0
1 -38 -24 0
1 39 -20 0
1 -39 38 0
1 39 21 0
1 39 -24 0
1 -15 8 0
1 15 17 0
1 15 45 0
1 15 -42 0
1 15 -11 0
1 -15 32 0
1 -15 -40 0
1 15 -43 0
1 -15 44 0
1 15 4 0
1 15 -5 0
1 -17 -8 0
1 -17 -29 0
1 -17 -45 0
1 17 42 0
1 -17 -3 0
1 17 6 0
1 -17 15 0
1 17 44 0
1 17 5 0
1 -35 16 0
1 -35 -36 0
1 -35 -41 0
1 -35 45 0
1 35 42 0
1 35 -22 0
1 -35 11 0
1 35 -31 0
1 -35 -40 0
1 35 43 0
1 -35 44 0
1 -35 -46 0
1 -36 16 0
1 36 34 0
1 -36 8 0
1 -36 -41 0
1 -36 -45 0
1 -36 -42 0
1 -36 22 0
1 -36 47 0
1 36 11 0
1 36 -35 0
1 -36 -43 0
1 36 -44 0
1 42 -36 0
1 -42 -17 0
1 42 -20 0
1 -42 -30 0
1 42 35 0
1 42 15 0
1 42 -44 0
1 42 -33 0
1 -44 -36 0
1 44 17 0
1 -44 -37 0
1 44 -30 0
1 -44 15 0
1 44 23 0
1 44 48 0
1 -44 33 0
1 -45 -36 0
1 -45 -35 0
1 -45 -15 0
1 -45 23 0
1 45 -43 0
1 -43 -45 0
1 -43 -35 0
1 -43 -23 0
1 30 -16 0
1 30 8 0
1 -30 -9 0
1 30 -25 0
1 -30 -11 0
1 -30 -47 0
1 -30 -12 0
1 -30 -27 0
1 30 -44 0
1 -30 46 0
1 30 -33 0
1 33 -8 0
1 -33 -16 0
1 33 -25 0
1 -33 -22 0
1 -33 -11 0
1 33 -46 0
1 37 -25 0
1 37 -47 0
1 -37 44 0
1 -37 -48 0
1 -48 -25 0
1 48 -42 0
1 -48 37 0
1 -48 -22 0
1 -48 -47 0
1 48 -46 0
1 47 16 0
1 47 -37 0
1 -47 30 0
1 -47 35 0
1 47 -48 0
1 -16 37 0
1 -16 30 0
1 -16 47 0
1 16 35 0
1 16 -48 0
1 22 36 0
1 -22 -37 0
1 22 3 0
1 -22 30 0
1 -22 35 0
1 -22 -48 0
1 22 46 0
1 -46 -37 0
1 -46 22 0
1 -46 -30 0
1 46 -35 0
1 -46 4 0
1 -46 48 0
1 -46 -33 0
